8
2147483647 74 63 65 11 94 62 23 
74 2147483647 68 77 52 13 99 91 
63 68 2147483647 63 52 33 59 8 
65 77 63 2147483647 96 90 51 30 
11 52 52 96 2147483647 78 43 56 
94 13 33 90 78 2147483647 32 6 
62 99 59 51 43 32 2147483647 99 
23 91 8 30 56 6 99 2147483647 
